50

100 4 217
99 30 192
97 15 189
97 16 228
97 14 420
93 21 288
93 16 394
92 23 210
92 1 378
88 21 258
83 18 371
83 14 479
79 21 421
76 5 308
76 8 491
75 21 458
72 19 456
71 21 492
70 11 225
69 21 384
67 13 333
66 7 239
63 4 469
62 17 491
62 11 296
61 12 220
61 15 488
51 6 326
50 2 471
44 8 415
44 6 215
43 9 305
43 7 441
40 9 495
39 1 325
37 6 430
37 4 422
30 2 247
23 2 278
20 3 233
19 4 267
18 4 409
17 5 379
15 4 461
14 5 344
13 3 354
13 4 248
12 1 239
8 2 448
8 1 295
